problem_generation/data/GISP/train/er_n=63_m=1181_p=0.60_SET2_setparam=100.00_alpha=0.50_97.lp
maximize
OBJ:100x0 + 100x1 + 100x2 + 100x3 + 100x4 + 100x5 + 100x6 + 100x7 + 100x8 + 100x9 + 100x10 + 100x11 + 100x12 + 100x13 + 100x14 + 100x15 + 100x16 + 100x17 + 100x18 + 100x19 + 100x20 + 100x21 + 100x22 + 100x23 + 100x24 + 100x25 + 100x26 + 100x27 + 100x28 + 100x29 + 100x30 + 100x31 + 100x32 + 100x33 + 100x34 + 100x35 + 100x36 + 100x37 + 100x38 + 100x39 + 100x40 + 100x41 + 100x42 + 100x43 + 100x44 + 100x45 + 100x46 + 100x47 + 100x48 + 100x49 + 100x50 + 100x51 + 100x52 + 100x53 + 100x54 + 100x55 + 100x56 + 100x57 + 100x58 + 100x59 + 100x60 + 100x61 + 100x62 - y36_53 - y15_30 - y26_39 - y17_58 - y7_35 - y8_9 - y48_54 - y0_23 - y6_57 - y40_59 - y21_55 - y10_36 - y2_32 - y2_41 - y10_54 - y25_52 - y22_28 - y7_12 - y36_48 - y15_25 - y47_48 - y55_61 - y7_21 - y7_30 - y18_30 - y5_60 - y28_62 - y29_36 - y21_32 - y6_43 - y40_45 - y48_58 - y21_41 - y40_54 - y10_40 - y33_42 - y10_49 - y2_45 - y25_47 - y51_59 - y3_19 - y22_32 - y13_51 - y3_28 - y14_28 - y14_37 - y36_43 - y55_56 - y28_39 - y36_52 - y5_46 - y36_61 - y17_57 - y6_38 - y29_40 - y48_53 - y25_33 - y2_40 - y2_49 - y43_50 - y22_27 - y13_46 - y14_23 - y43_59 - y13_55 - y35_55 - y14_32 - y36_38 - y17_34 - y17_43 - y47_56 - y5_50 - y6_15 - y9_48 - y28_61 - y6_51 - y10_12 - y10_21 - y2_17 - y25_28 - y10_39 - y23_58 - y2_35 - y32_36 - y24_32 - y51_58 - y13_41 - y32_54 - y13_50 - y24_59 - y16_55 - y5_27 - y9_25 - y28_38 - y36_51 - y9_34 - y17_47 - y17_56 - y50_53 - y50_62 - y21_35 - y6_46 - y20_39 - y39_61 - y2_30 - y4_49 - y24_36 - y35_36 - y43_49 - y16_32 - y1_43 - y35_45 - y16_41 - y1_52 - y13_54 - y16_50 - y1_61 - y5_22 - y57_60 - y36_37 - y5_31 - y3_47 - y17_42 - y28_42 - y9_38 - y9_47 - y58_61 - y42_44 - y6_32 - y21_30 - y8_60 - y42_62 - y20_34 - y31_34 - y12_39 - y31_61 - y4_44 - y4_53 - y16_18 - y13_31 - y32_44 - y16_27 - y1_38 - y1_47 - y24_49 - y35_49 - y49_51 - y9_24 - y17_37 - y28_37 - y5_44 - y6_9 - y19_46 - y30_46 - y27_59 - y8_55 - y0_60 - y12_25 - y23_25 - y31_38 - y23_34 - y2_11 - y4_30 - y12_43 - y31_56 - y4_39 - y4_48 - y12_61 - y23_61 - y34_58 - y13_44 - y16_49 - y38_46 - y9_19 - y15_53 - y15_62 - y26_62 - y5_39 - y27_36 - y8_41 - y19_41 - y27_54 - y8_50 - y30_50 - y0_46 - y8_59 - y30_59 - y11_55 - y20_33 - y31_33 - y39_46 - y23_29 - y20_51 - y4_34 - y12_47 - y1_10 - y23_47 - y4_43 - y12_56 - y13_21 - y53_57 - y16_17 - y45_53 - y45_62 - y5_7 - y38_41 - y15_48 - y38_50 - y26_57 - y27_31 - y7_62 - y8_27 - y18_62 - y19_27 - y19_36 - y0_32 - y19_45 - y42_47 - y0_41 - y8_54 - y30_54 - y20_37 - y4_20 - y4_29 - y1_23 - y3_51 - y37_53 - y16_30 - y26_34 - y15_43 - y26_43 - y7_39 - y18_39 - y49_54 - y18_48 - y26_61 - y0_18 - y30_31 - y27_44 - y11_27 - y0_36 - y11_36 - y8_49 - y0_45 - y41_46 - y30_58 - y20_23 - y4_6 - y0_54 - y41_55 - y52_55 - y4_15 - y33_51 - y23_37 - y4_33 - y37_39 - y45_52 - y14_46 - y34_61 - y14_55 - y15_29 - y18_25 - y15_38 - y26_56 - y8_17 - y0_13 - y11_13 - y18_61 - y48_62 - y0_22 - y30_35 - y8_44 - y12_14 - y4_10 - y33_46 - y12_23 - y41_59 - y10_62 - y34_38 - y14_50 - y37_61 - y18_29 - y18_38 - y15_51 - y0_8 - y18_56 - y8_21 - y19_21 - y48_57 - y0_17 - y11_17 - y0_26 - y6_60 - y11_35 - y41_54 - y52_54 - y10_48 - y33_50 - y10_57 - y33_59 - y44_59 - y25_55 - y3_27 - y14_27 - y34_42 - y34_51 - y14_54 - y15_28 - y26_46 - y18_42 - y48_61 - y11_21 - y29_57 - y40_57 - y21_62 - y33_36 - y10_43 - y44_45 - y3_31 - y22_44 - y3_49 - y36_46 - y15_23 - y36_55 - y15_32 - y18_28 - y28_60 - y6_41 - y6_59 - y44_49 - y2_43 - y25_45 - y3_17 - y32_53 - y14_26 - y3_44 - y47_50 - y36_59 - y9_42 - y17_55 - y28_55 - y5_62 - y6_27 - y21_34 - y6_45 - y40_56 - y21_61 - y2_20 - y33_44 - y51_52 - y14_21 - y32_57 - y14_30 - y16_58 - y17_32 - y7_9 - y36_45 - y58_60 - y40_42 - y21_38 - y6_49 - y2_6 - y39_55 - y25_26 - y10_37 - y25_35 - y32_34 - y13_39 - y35_39 - y14_16 - y13_48 - y24_48 - y3_25 - y16_44 - y1_55 - y13_57 - y24_57 - y16_53 - y35_57 - y17_27 - y36_40 - y17_36 - y36_49 - y47_49 - y28_45 - y6_8 - y47_58 - y6_26 - y50_60 - y6_44 - y21_42 - y31_46 - y39_59 - y2_19 - y54_57 - y23_60 - y3_11 - y51_60 - y35_43 - y43_56 - y13_52 - y9_18 - y28_31 - y36_44 - y9_27 - y28_49 - y6_12 - y9_45 - y42_51 - y19_58 - y2_5 - y20_41 - y10_18 - y39_54 - y2_14 - y1_36 - y24_38 - y24_47 - y1_54 - y5_15 - y9_22 - y49_58 - y6_7 - y6_25 - y42_46 - y21_23 - y42_55 - y20_27 - y39_40 - y2_9 - y12_41 - y23_41 - y54_56 - y12_50 - y13_15 - y1_22 - y4_55 - y24_33 - y32_46 - y16_29 - y1_40 - y16_38 - y1_49 - y46_48 - y5_19 - y17_21 - y49_53 - y17_30 - y26_60 - y9_35 - y27_34 - y27_43 - y8_39 - y27_52 - y30_57 - y42_59 - y12_18 - y12_27 - y2_4 - y12_45 - y20_58 - y1_17 - y13_19 - y24_28 - y1_35 - y35_37 - y16_33 - y9_12 - y26_55 - y38_57 - y5_32 - y7_60 - y18_60 - y27_38 - y19_34 - y27_47 - y19_43 - y27_56 - y11_39 - y19_52 - y0_48 - y0_57 - y4_18 - y12_31 - y20_44 - y23_40 - y1_3 - y1_12 - y45_46 - y1_21 - y16_19 - y37_51 - y1_39 - y5_18 - y9_16 - y49_52 - y19_20 - y27_42 - y19_38 - y0_34 - y11_43 - y31_39 - y44_58 - y22_48 - y1_25 - y34_59 - y56_59 - y14_53 - y3_62 - y26_36 - y46_51 - y7_32 - y18_32 - y15_54 - y7_50 - y27_28 - y0_11 - y0_20 - y11_20 - y8_33 - y30_42 - y0_38 - y41_48 - y52_57 - y4_17 - y4_26 - y4_35 - y22_34 - y22_43 - y14_39 - y45_54 - y3_48 - y14_48 - y7_27 - y15_49 - y8_10 - y27_32 - y11_24 - y29_60 - y19_37 - y41_61 - y52_61 - y10_55 - y2_51 - y25_53 - y2_60 - y3_34 - y45_49 - y22_56 - y45_58 - y37_54 - y14_61 - y18_22 - y26_35 - y7_31 - y18_31 - y15_44 - y0_1 - y18_49 - y8_23 - y19_23 - y21_51 - y21_60 - y33_34 - y41_47 - y41_56 - y25_39 - y2_46 - y3_20 - y34_35 - y14_29 - y3_38 - y14_47
 Subject to
C1: x0+x1-y0_1 <=1 
C2: x0+x3 <=1 
C3: x0+x6 <=1 
C4: x0+x7 <=1 
C5: x0+x8-y0_8 <=1 
C6: x0+x11-y0_11 <=1 
C7: x0+x12 <=1 
C8: x0+x13-y0_13 <=1 
C9: x0+x16 <=1 
C10: x0+x17-y0_17 <=1 
C11: x0+x18-y0_18 <=1 
C12: x0+x19 <=1 
C13: x0+x20-y0_20 <=1 
C14: x0+x22-y0_22 <=1 
C15: x0+x23-y0_23 <=1 
C16: x0+x24 <=1 
C17: x0+x26-y0_26 <=1 
C18: x0+x27 <=1 
C19: x0+x28 <=1 
C20: x0+x32-y0_32 <=1 
C21: x0+x34-y0_34 <=1 
C22: x0+x35 <=1 
C23: x0+x36-y0_36 <=1 
C24: x0+x37 <=1 
C25: x0+x38-y0_38 <=1 
C26: x0+x39 <=1 
C27: x0+x40 <=1 
C28: x0+x41-y0_41 <=1 
C29: x0+x42 <=1 
C30: x0+x45-y0_45 <=1 
C31: x0+x46-y0_46 <=1 
C32: x0+x48-y0_48 <=1 
C33: x0+x50 <=1 
C34: x0+x54-y0_54 <=1 
C35: x0+x55 <=1 
C36: x0+x57-y0_57 <=1 
C37: x0+x59 <=1 
C38: x0+x60-y0_60 <=1 
C39: x0+x61 <=1 
C40: x0+x62 <=1 
C41: x1+x3-y1_3 <=1 
C42: x1+x7 <=1 
C43: x1+x10-y1_10 <=1 
C44: x1+x11 <=1 
C45: x1+x12-y1_12 <=1 
C46: x1+x13 <=1 
C47: x1+x14 <=1 
C48: x1+x17-y1_17 <=1 
C49: x1+x18 <=1 
C50: x1+x19 <=1 
C51: x1+x21-y1_21 <=1 
C52: x1+x22-y1_22 <=1 
C53: x1+x23-y1_23 <=1 
C54: x1+x24 <=1 
C55: x1+x25-y1_25 <=1 
C56: x1+x28 <=1 
C57: x1+x30 <=1 
C58: x1+x32 <=1 
C59: x1+x34 <=1 
C60: x1+x35-y1_35 <=1 
C61: x1+x36-y1_36 <=1 
C62: x1+x38-y1_38 <=1 
C63: x1+x39-y1_39 <=1 
C64: x1+x40-y1_40 <=1 
C65: x1+x42 <=1 
C66: x1+x43-y1_43 <=1 
C67: x1+x46 <=1 
C68: x1+x47-y1_47 <=1 
C69: x1+x49-y1_49 <=1 
C70: x1+x52-y1_52 <=1 
C71: x1+x53 <=1 
C72: x1+x54-y1_54 <=1 
C73: x1+x55-y1_55 <=1 
C74: x1+x58 <=1 
C75: x1+x59 <=1 
C76: x1+x60 <=1 
C77: x1+x61-y1_61 <=1 
C78: x1+x62 <=1 
C79: x2+x3 <=1 
C80: x2+x4-y2_4 <=1 
C81: x2+x5-y2_5 <=1 
C82: x2+x6-y2_6 <=1 
C83: x2+x9-y2_9 <=1 
C84: x2+x10 <=1 
C85: x2+x11-y2_11 <=1 
C86: x2+x14-y2_14 <=1 
C87: x2+x15 <=1 
C88: x2+x16 <=1 
C89: x2+x17-y2_17 <=1 
C90: x2+x18 <=1 
C91: x2+x19-y2_19 <=1 
C92: x2+x20-y2_20 <=1 
C93: x2+x24 <=1 
C94: x2+x30-y2_30 <=1 
C95: x2+x31 <=1 
C96: x2+x32-y2_32 <=1 
C97: x2+x35-y2_35 <=1 
C98: x2+x40-y2_40 <=1 
C99: x2+x41-y2_41 <=1 
C100: x2+x42 <=1 
C101: x2+x43-y2_43 <=1 
C102: x2+x45-y2_45 <=1 
C103: x2+x46-y2_46 <=1 
C104: x2+x49-y2_49 <=1 
C105: x2+x51-y2_51 <=1 
C106: x2+x55 <=1 
C107: x2+x56 <=1 
C108: x2+x57 <=1 
C109: x2+x60-y2_60 <=1 
C110: x3+x8 <=1 
C111: x3+x11-y3_11 <=1 
C112: x3+x12 <=1 
C113: x3+x13 <=1 
C114: x3+x14 <=1 
C115: x3+x15 <=1 
C116: x3+x16 <=1 
C117: x3+x17-y3_17 <=1 
C118: x3+x18 <=1 
C119: x3+x19-y3_19 <=1 
C120: x3+x20-y3_20 <=1 
C121: x3+x21 <=1 
C122: x3+x23 <=1 
C123: x3+x24 <=1 
C124: x3+x25-y3_25 <=1 
C125: x3+x26 <=1 
C126: x3+x27-y3_27 <=1 
C127: x3+x28-y3_28 <=1 
C128: x3+x29 <=1 
C129: x3+x31-y3_31 <=1 
C130: x3+x32 <=1 
C131: x3+x33 <=1 
C132: x3+x34-y3_34 <=1 
C133: x3+x37 <=1 
C134: x3+x38-y3_38 <=1 
C135: x3+x42 <=1 
C136: x3+x44-y3_44 <=1 
C137: x3+x45 <=1 
C138: x3+x47-y3_47 <=1 
C139: x3+x48-y3_48 <=1 
C140: x3+x49-y3_49 <=1 
C141: x3+x51-y3_51 <=1 
C142: x3+x53 <=1 
C143: x3+x55 <=1 
C144: x3+x56 <=1 
C145: x3+x58 <=1 
C146: x3+x59 <=1 
C147: x3+x60 <=1 
C148: x3+x61 <=1 
C149: x3+x62-y3_62 <=1 
C150: x4+x5 <=1 
C151: x4+x6-y4_6 <=1 
C152: x4+x10-y4_10 <=1 
C153: x4+x13 <=1 
C154: x4+x15-y4_15 <=1 
C155: x4+x17-y4_17 <=1 
C156: x4+x18-y4_18 <=1 
C157: x4+x20-y4_20 <=1 
C158: x4+x21 <=1 
C159: x4+x25 <=1 
C160: x4+x26-y4_26 <=1 
C161: x4+x28 <=1 
C162: x4+x29-y4_29 <=1 
C163: x4+x30-y4_30 <=1 
C164: x4+x32 <=1 
C165: x4+x33-y4_33 <=1 
C166: x4+x34-y4_34 <=1 
C167: x4+x35-y4_35 <=1 
C168: x4+x36 <=1 
C169: x4+x37 <=1 
C170: x4+x39-y4_39 <=1 
C171: x4+x41 <=1 
C172: x4+x43-y4_43 <=1 
C173: x4+x44-y4_44 <=1 
C174: x4+x45 <=1 
C175: x4+x46 <=1 
C176: x4+x47 <=1 
C177: x4+x48-y4_48 <=1 
C178: x4+x49-y4_49 <=1 
C179: x4+x50 <=1 
C180: x4+x52 <=1 
C181: x4+x53-y4_53 <=1 
C182: x4+x55-y4_55 <=1 
C183: x4+x56 <=1 
C184: x4+x60 <=1 
C185: x4+x62 <=1 
C186: x5+x6 <=1 
C187: x5+x7-y5_7 <=1 
C188: x5+x8 <=1 
C189: x5+x10 <=1 
C190: x5+x12 <=1 
C191: x5+x13 <=1 
C192: x5+x15-y5_15 <=1 
C193: x5+x18-y5_18 <=1 
C194: x5+x19-y5_19 <=1 
C195: x5+x22-y5_22 <=1 
C196: x5+x26 <=1 
C197: x5+x27-y5_27 <=1 
C198: x5+x29 <=1 
C199: x5+x31-y5_31 <=1 
C200: x5+x32-y5_32 <=1 
C201: x5+x34 <=1 
C202: x5+x37 <=1 
C203: x5+x38 <=1 
C204: x5+x39-y5_39 <=1 
C205: x5+x40 <=1 
C206: x5+x41 <=1 
C207: x5+x44-y5_44 <=1 
C208: x5+x46-y5_46 <=1 
C209: x5+x47 <=1 
C210: x5+x48 <=1 
C211: x5+x50-y5_50 <=1 
C212: x5+x53 <=1 
C213: x5+x55 <=1 
C214: x5+x60-y5_60 <=1 
C215: x5+x62-y5_62 <=1 
C216: x6+x7-y6_7 <=1 
C217: x6+x8-y6_8 <=1 
C218: x6+x9-y6_9 <=1 
C219: x6+x11 <=1 
C220: x6+x12-y6_12 <=1 
C221: x6+x13 <=1 
C222: x6+x14 <=1 
C223: x6+x15-y6_15 <=1 
C224: x6+x16 <=1 
C225: x6+x17 <=1 
C226: x6+x21 <=1 
C227: x6+x22 <=1 
C228: x6+x23 <=1 
C229: x6+x25-y6_25 <=1 
C230: x6+x26-y6_26 <=1 
C231: x6+x27-y6_27 <=1 
C232: x6+x29 <=1 
C233: x6+x32-y6_32 <=1 
C234: x6+x38-y6_38 <=1 
C235: x6+x40 <=1 
C236: x6+x41-y6_41 <=1 
C237: x6+x43-y6_43 <=1 
C238: x6+x44-y6_44 <=1 
C239: x6+x45-y6_45 <=1 
C240: x6+x46-y6_46 <=1 
C241: x6+x49-y6_49 <=1 
C242: x6+x51-y6_51 <=1 
C243: x6+x52 <=1 
C244: x6+x54 <=1 
C245: x6+x57-y6_57 <=1 
C246: x6+x58 <=1 
C247: x6+x59-y6_59 <=1 
C248: x6+x60-y6_60 <=1 
C249: x7+x8 <=1 
C250: x7+x9-y7_9 <=1 
C251: x7+x10 <=1 
C252: x7+x11 <=1 
C253: x7+x12-y7_12 <=1 
C254: x7+x16 <=1 
C255: x7+x17 <=1 
C256: x7+x18 <=1 
C257: x7+x21-y7_21 <=1 
C258: x7+x24 <=1 
C259: x7+x26 <=1 
C260: x7+x27-y7_27 <=1 
C261: x7+x30-y7_30 <=1 
C262: x7+x31-y7_31 <=1 
C263: x7+x32-y7_32 <=1 
C264: x7+x35-y7_35 <=1 
C265: x7+x39-y7_39 <=1 
C266: x7+x44 <=1 
C267: x7+x50-y7_50 <=1 
C268: x7+x53 <=1 
C269: x7+x56 <=1 
C270: x7+x57 <=1 
C271: x7+x59 <=1 
C272: x7+x60-y7_60 <=1 
C273: x7+x62-y7_62 <=1 
C274: x8+x9-y8_9 <=1 
C275: x8+x10-y8_10 <=1 
C276: x8+x12 <=1 
C277: x8+x14 <=1 
C278: x8+x16 <=1 
C279: x8+x17-y8_17 <=1 
C280: x8+x19 <=1 
C281: x8+x21-y8_21 <=1 
C282: x8+x23-y8_23 <=1 
C283: x8+x24 <=1 
C284: x8+x26 <=1 
C285: x8+x27-y8_27 <=1 
C286: x8+x31 <=1 
C287: x8+x32 <=1 
C288: x8+x33-y8_33 <=1 
C289: x8+x35 <=1 
C290: x8+x38 <=1 
C291: x8+x39-y8_39 <=1 
C292: x8+x40 <=1 
C293: x8+x41-y8_41 <=1 
C294: x8+x43 <=1 
C295: x8+x44-y8_44 <=1 
C296: x8+x46 <=1 
C297: x8+x47 <=1 
C298: x8+x48 <=1 
C299: x8+x49-y8_49 <=1 
C300: x8+x50-y8_50 <=1 
C301: x8+x54-y8_54 <=1 
C302: x8+x55-y8_55 <=1 
C303: x8+x59-y8_59 <=1 
C304: x8+x60-y8_60 <=1 
C305: x8+x62 <=1 
C306: x9+x11 <=1 
C307: x9+x12-y9_12 <=1 
C308: x9+x13 <=1 
C309: x9+x14 <=1 
C310: x9+x16-y9_16 <=1 
C311: x9+x18-y9_18 <=1 
C312: x9+x19-y9_19 <=1 
C313: x9+x20 <=1 
C314: x9+x22-y9_22 <=1 
C315: x9+x24-y9_24 <=1 
C316: x9+x25-y9_25 <=1 
C317: x9+x27-y9_27 <=1 
C318: x9+x30 <=1 
C319: x9+x34-y9_34 <=1 
C320: x9+x35-y9_35 <=1 
C321: x9+x38-y9_38 <=1 
C322: x9+x42-y9_42 <=1 
C323: x9+x44 <=1 
C324: x9+x45-y9_45 <=1 
C325: x9+x46 <=1 
C326: x9+x47-y9_47 <=1 
C327: x9+x48-y9_48 <=1 
C328: x9+x49 <=1 
C329: x9+x53 <=1 
C330: x9+x54 <=1 
C331: x9+x55 <=1 
C332: x9+x58 <=1 
C333: x9+x61 <=1 
C334: x9+x62 <=1 
C335: x10+x12-y10_12 <=1 
C336: x10+x13 <=1 
C337: x10+x15 <=1 
C338: x10+x18-y10_18 <=1 
C339: x10+x21-y10_21 <=1 
C340: x10+x23 <=1 
C341: x10+x26 <=1 
C342: x10+x28 <=1 
C343: x10+x29 <=1 
C344: x10+x31 <=1 
C345: x10+x33 <=1 
C346: x10+x35 <=1 
C347: x10+x36-y10_36 <=1 
C348: x10+x37-y10_37 <=1 
C349: x10+x38 <=1 
C350: x10+x39-y10_39 <=1 
C351: x10+x40-y10_40 <=1 
C352: x10+x42 <=1 
C353: x10+x43-y10_43 <=1 
C354: x10+x45 <=1 
C355: x10+x46 <=1 
C356: x10+x48-y10_48 <=1 
C357: x10+x49-y10_49 <=1 
C358: x10+x51 <=1 
C359: x10+x52 <=1 
C360: x10+x54-y10_54 <=1 
C361: x10+x55-y10_55 <=1 
C362: x10+x56 <=1 
C363: x10+x57-y10_57 <=1 
C364: x10+x58 <=1 
C365: x10+x59 <=1 
C366: x10+x60 <=1 
C367: x10+x61 <=1 
C368: x10+x62-y10_62 <=1 
C369: x11+x13-y11_13 <=1 
C370: x11+x16 <=1 
C371: x11+x17-y11_17 <=1 
C372: x11+x18 <=1 
C373: x11+x19 <=1 
C374: x11+x20-y11_20 <=1 
C375: x11+x21-y11_21 <=1 
C376: x11+x23 <=1 
C377: x11+x24-y11_24 <=1 
C378: x11+x25 <=1 
C379: x11+x26 <=1 
C380: x11+x27-y11_27 <=1 
C381: x11+x28 <=1 
C382: x11+x29 <=1 
C383: x11+x31 <=1 
C384: x11+x33 <=1 
C385: x11+x35-y11_35 <=1 
C386: x11+x36-y11_36 <=1 
C387: x11+x39-y11_39 <=1 
C388: x11+x42 <=1 
C389: x11+x43-y11_43 <=1 
C390: x11+x44 <=1 
C391: x11+x46 <=1 
C392: x11+x47 <=1 
C393: x11+x48 <=1 
C394: x11+x49 <=1 
C395: x11+x55-y11_55 <=1 
C396: x11+x56 <=1 
C397: x11+x57 <=1 
C398: x11+x58 <=1 
C399: x11+x59 <=1 
C400: x11+x60 <=1 
C401: x11+x61 <=1 
C402: x12+x14-y12_14 <=1 
C403: x12+x15 <=1 
C404: x12+x18-y12_18 <=1 
C405: x12+x19 <=1 
C406: x12+x21 <=1 
C407: x12+x23-y12_23 <=1 
C408: x12+x24 <=1 
C409: x12+x25-y12_25 <=1 
C410: x12+x26 <=1 
C411: x12+x27-y12_27 <=1 
C412: x12+x28 <=1 
C413: x12+x29 <=1 
C414: x12+x31-y12_31 <=1 
C415: x12+x32 <=1 
C416: x12+x37 <=1 
C417: x12+x39-y12_39 <=1 
C418: x12+x40 <=1 
C419: x12+x41-y12_41 <=1 
C420: x12+x43-y12_43 <=1 
C421: x12+x45-y12_45 <=1 
C422: x12+x47-y12_47 <=1 
C423: x12+x48 <=1 
C424: x12+x49 <=1 
C425: x12+x50-y12_50 <=1 
C426: x12+x56-y12_56 <=1 
C427: x12+x58 <=1 
C428: x12+x61-y12_61 <=1 
C429: x12+x62 <=1 
C430: x13+x14 <=1 
C431: x13+x15-y13_15 <=1 
C432: x13+x17 <=1 
C433: x13+x19-y13_19 <=1 
C434: x13+x21-y13_21 <=1 
C435: x13+x22 <=1 
C436: x13+x23 <=1 
C437: x13+x24 <=1 
C438: x13+x25 <=1 
C439: x13+x27 <=1 
C440: x13+x30 <=1 
C441: x13+x31-y13_31 <=1 
C442: x13+x33 <=1 
C443: x13+x36 <=1 
C444: x13+x37 <=1 
C445: x13+x39-y13_39 <=1 
C446: x13+x40 <=1 
C447: x13+x41-y13_41 <=1 
C448: x13+x43 <=1 
C449: x13+x44-y13_44 <=1 
C450: x13+x46-y13_46 <=1 
C451: x13+x48-y13_48 <=1 
C452: x13+x49 <=1 
C453: x13+x50-y13_50 <=1 
C454: x13+x51-y13_51 <=1 
C455: x13+x52-y13_52 <=1 
C456: x13+x54-y13_54 <=1 
C457: x13+x55-y13_55 <=1 
C458: x13+x56 <=1 
C459: x13+x57-y13_57 <=1 
C460: x13+x60 <=1 
C461: x13+x61 <=1 
C462: x13+x62 <=1 
C463: x14+x16-y14_16 <=1 
C464: x14+x18 <=1 
C465: x14+x19 <=1 
C466: x14+x20 <=1 
C467: x14+x21-y14_21 <=1 
C468: x14+x22 <=1 
C469: x14+x23-y14_23 <=1 
C470: x14+x24 <=1 
C471: x14+x26-y14_26 <=1 
C472: x14+x27-y14_27 <=1 
C473: x14+x28-y14_28 <=1 
C474: x14+x29-y14_29 <=1 
C475: x14+x30-y14_30 <=1 
C476: x14+x32-y14_32 <=1 
C477: x14+x33 <=1 
C478: x14+x35 <=1 
C479: x14+x36 <=1 
C480: x14+x37-y14_37 <=1 
C481: x14+x38 <=1 
C482: x14+x39-y14_39 <=1 
C483: x14+x40 <=1 
C484: x14+x43 <=1 
C485: x14+x46-y14_46 <=1 
C486: x14+x47-y14_47 <=1 
C487: x14+x48-y14_48 <=1 
C488: x14+x49 <=1 
C489: x14+x50-y14_50 <=1 
C490: x14+x51 <=1 
C491: x14+x53-y14_53 <=1 
C492: x14+x54-y14_54 <=1 
C493: x14+x55-y14_55 <=1 
C494: x14+x56 <=1 
C495: x14+x58 <=1 
C496: x14+x61-y14_61 <=1 
C497: x14+x62 <=1 
C498: x15+x17 <=1 
C499: x15+x18 <=1 
C500: x15+x19 <=1 
C501: x15+x22 <=1 
C502: x15+x23-y15_23 <=1 
C503: x15+x25-y15_25 <=1 
C504: x15+x27 <=1 
C505: x15+x28-y15_28 <=1 
C506: x15+x29-y15_29 <=1 
C507: x15+x30-y15_30 <=1 
C508: x15+x31 <=1 
C509: x15+x32-y15_32 <=1 
C510: x15+x37 <=1 
C511: x15+x38-y15_38 <=1 
C512: x15+x39 <=1 
C513: x15+x40 <=1 
C514: x15+x41 <=1 
C515: x15+x43-y15_43 <=1 
C516: x15+x44-y15_44 <=1 
C517: x15+x48-y15_48 <=1 
C518: x15+x49-y15_49 <=1 
C519: x15+x50 <=1 
C520: x15+x51-y15_51 <=1 
C521: x15+x52 <=1 
C522: x15+x53-y15_53 <=1 
C523: x15+x54-y15_54 <=1 
C524: x15+x56 <=1 
C525: x15+x58 <=1 
C526: x15+x59 <=1 
C527: x15+x60 <=1 
C528: x15+x61 <=1 
C529: x15+x62-y15_62 <=1 
C530: x16+x17-y16_17 <=1 
C531: x16+x18-y16_18 <=1 
C532: x16+x19-y16_19 <=1 
C533: x16+x24 <=1 
C534: x16+x27-y16_27 <=1 
C535: x16+x29-y16_29 <=1 
C536: x16+x30-y16_30 <=1 
C537: x16+x32-y16_32 <=1 
C538: x16+x33-y16_33 <=1 
C539: x16+x38-y16_38 <=1 
C540: x16+x39 <=1 
C541: x16+x41-y16_41 <=1 
C542: x16+x43 <=1 
C543: x16+x44-y16_44 <=1 
C544: x16+x45 <=1 
C545: x16+x46 <=1 
C546: x16+x48 <=1 
C547: x16+x49-y16_49 <=1 
C548: x16+x50-y16_50 <=1 
C549: x16+x51 <=1 
C550: x16+x52 <=1 
C551: x16+x53-y16_53 <=1 
C552: x16+x54 <=1 
C553: x16+x55-y16_55 <=1 
C554: x16+x57 <=1 
C555: x16+x58-y16_58 <=1 
C556: x16+x62 <=1 
C557: x17+x18 <=1 
C558: x17+x21-y17_21 <=1 
C559: x17+x23 <=1 
C560: x17+x26 <=1 
C561: x17+x27-y17_27 <=1 
C562: x17+x29 <=1 
C563: x17+x30-y17_30 <=1 
C564: x17+x31 <=1 
C565: x17+x32-y17_32 <=1 
C566: x17+x34-y17_34 <=1 
C567: x17+x36-y17_36 <=1 
C568: x17+x37-y17_37 <=1 
C569: x17+x38 <=1 
C570: x17+x39 <=1 
C571: x17+x41 <=1 
C572: x17+x42-y17_42 <=1 
C573: x17+x43-y17_43 <=1 
C574: x17+x46 <=1 
C575: x17+x47-y17_47 <=1 
C576: x17+x49 <=1 
C577: x17+x54 <=1 
C578: x17+x55-y17_55 <=1 
C579: x17+x56-y17_56 <=1 
C580: x17+x57-y17_57 <=1 
C581: x17+x58-y17_58 <=1 
C582: x18+x20 <=1 
C583: x18+x21 <=1 
C584: x18+x22-y18_22 <=1 
C585: x18+x25-y18_25 <=1 
C586: x18+x27 <=1 
C587: x18+x28-y18_28 <=1 
C588: x18+x29-y18_29 <=1 
C589: x18+x30-y18_30 <=1 
C590: x18+x31-y18_31 <=1 
C591: x18+x32-y18_32 <=1 
C592: x18+x34 <=1 
C593: x18+x38-y18_38 <=1 
C594: x18+x39-y18_39 <=1 
C595: x18+x40 <=1 
C596: x18+x42-y18_42 <=1 
C597: x18+x45 <=1 
C598: x18+x46 <=1 
C599: x18+x47 <=1 
C600: x18+x48-y18_48 <=1 
C601: x18+x49-y18_49 <=1 
C602: x18+x50 <=1 
C603: x18+x56-y18_56 <=1 
C604: x18+x59 <=1 
C605: x18+x60-y18_60 <=1 
C606: x18+x61-y18_61 <=1 
C607: x18+x62-y18_62 <=1 
C608: x19+x20-y19_20 <=1 
C609: x19+x21-y19_21 <=1 
C610: x19+x22 <=1 
C611: x19+x23-y19_23 <=1 
C612: x19+x27-y19_27 <=1 
C613: x19+x29 <=1 
C614: x19+x30 <=1 
C615: x19+x33 <=1 
C616: x19+x34-y19_34 <=1 
C617: x19+x35 <=1 
C618: x19+x36-y19_36 <=1 
C619: x19+x37-y19_37 <=1 
C620: x19+x38-y19_38 <=1 
C621: x19+x40 <=1 
C622: x19+x41-y19_41 <=1 
C623: x19+x42 <=1 
C624: x19+x43-y19_43 <=1 
C625: x19+x45-y19_45 <=1 
C626: x19+x46-y19_46 <=1 
C627: x19+x47 <=1 
C628: x19+x49 <=1 
C629: x19+x52-y19_52 <=1 
C630: x19+x53 <=1 
C631: x19+x55 <=1 
C632: x19+x58-y19_58 <=1 
C633: x19+x61 <=1 
C634: x20+x21 <=1 
C635: x20+x22 <=1 
C636: x20+x23-y20_23 <=1 
C637: x20+x26 <=1 
C638: x20+x27-y20_27 <=1 
C639: x20+x28 <=1 
C640: x20+x32 <=1 
C641: x20+x33-y20_33 <=1 
C642: x20+x34-y20_34 <=1 
C643: x20+x37-y20_37 <=1 
C644: x20+x38 <=1 
C645: x20+x39-y20_39 <=1 
C646: x20+x41-y20_41 <=1 
C647: x20+x43 <=1 
C648: x20+x44-y20_44 <=1 
C649: x20+x45 <=1 
C650: x20+x46 <=1 
C651: x20+x47 <=1 
C652: x20+x51-y20_51 <=1 
C653: x20+x54 <=1 
C654: x20+x55 <=1 
C655: x20+x56 <=1 
C656: x20+x57 <=1 
C657: x20+x58-y20_58 <=1 
C658: x20+x59 <=1 
C659: x20+x61 <=1 
C660: x21+x23-y21_23 <=1 
C661: x21+x30-y21_30 <=1 
C662: x21+x32-y21_32 <=1 
C663: x21+x33 <=1 
C664: x21+x34-y21_34 <=1 
C665: x21+x35-y21_35 <=1 
C666: x21+x36 <=1 
C667: x21+x38-y21_38 <=1 
C668: x21+x39 <=1 
C669: x21+x41-y21_41 <=1 
C670: x21+x42-y21_42 <=1 
C671: x21+x45 <=1 
C672: x21+x47 <=1 
C673: x21+x48 <=1 
C674: x21+x49 <=1 
C675: x21+x51-y21_51 <=1 
C676: x21+x54 <=1 
C677: x21+x55-y21_55 <=1 
C678: x21+x57 <=1 
C679: x21+x60-y21_60 <=1 
C680: x21+x61-y21_61 <=1 
C681: x21+x62-y21_62 <=1 
C682: x22+x23 <=1 
C683: x22+x24 <=1 
C684: x22+x25 <=1 
C685: x22+x27-y22_27 <=1 
C686: x22+x28-y22_28 <=1 
C687: x22+x30 <=1 
C688: x22+x32-y22_32 <=1 
C689: x22+x34-y22_34 <=1 
C690: x22+x36 <=1 
C691: x22+x37 <=1 
C692: x22+x38 <=1 
C693: x22+x39 <=1 
C694: x22+x42 <=1 
C695: x22+x43-y22_43 <=1 
C696: x22+x44-y22_44 <=1 
C697: x22+x45 <=1 
C698: x22+x48-y22_48 <=1 
C699: x22+x49 <=1 
C700: x22+x50 <=1 
C701: x22+x51 <=1 
C702: x22+x55 <=1 
C703: x22+x56-y22_56 <=1 
C704: x22+x58 <=1 
C705: x22+x60 <=1 
C706: x23+x24 <=1 
C707: x23+x25-y23_25 <=1 
C708: x23+x28 <=1 
C709: x23+x29-y23_29 <=1 
C710: x23+x30 <=1 
C711: x23+x34-y23_34 <=1 
C712: x23+x37-y23_37 <=1 
C713: x23+x40-y23_40 <=1 
C714: x23+x41-y23_41 <=1 
C715: x23+x42 <=1 
C716: x23+x43 <=1 
C717: x23+x45 <=1 
C718: x23+x47-y23_47 <=1 
C719: x23+x50 <=1 
C720: x23+x57 <=1 
C721: x23+x58-y23_58 <=1 
C722: x23+x60-y23_60 <=1 
C723: x23+x61-y23_61 <=1 
C724: x23+x62 <=1 
C725: x24+x26 <=1 
C726: x24+x28-y24_28 <=1 
C727: x24+x30 <=1 
C728: x24+x32-y24_32 <=1 
C729: x24+x33-y24_33 <=1 
C730: x24+x35 <=1 
C731: x24+x36-y24_36 <=1 
C732: x24+x37 <=1 
C733: x24+x38-y24_38 <=1 
C734: x24+x39 <=1 
C735: x24+x42 <=1 
C736: x24+x45 <=1 
C737: x24+x46 <=1 
C738: x24+x47-y24_47 <=1 
C739: x24+x48-y24_48 <=1 
C740: x24+x49-y24_49 <=1 
C741: x24+x52 <=1 
C742: x24+x55 <=1 
C743: x24+x56 <=1 
C744: x24+x57-y24_57 <=1 
C745: x24+x59-y24_59 <=1 
C746: x24+x60 <=1 
C747: x25+x26-y25_26 <=1 
C748: x25+x27 <=1 
C749: x25+x28-y25_28 <=1 
C750: x25+x30 <=1 
C751: x25+x33-y25_33 <=1 
C752: x25+x35-y25_35 <=1 
C753: x25+x37 <=1 
C754: x25+x38 <=1 
C755: x25+x39-y25_39 <=1 
C756: x25+x40 <=1 
C757: x25+x41 <=1 
C758: x25+x44 <=1 
C759: x25+x45-y25_45 <=1 
C760: x25+x47-y25_47 <=1 
C761: x25+x52-y25_52 <=1 
C762: x25+x53-y25_53 <=1 
C763: x25+x55-y25_55 <=1 
C764: x25+x59 <=1 
C765: x25+x60 <=1 
C766: x25+x61 <=1 
C767: x26+x28 <=1 
C768: x26+x29 <=1 
C769: x26+x30 <=1 
C770: x26+x33 <=1 
C771: x26+x34-y26_34 <=1 
C772: x26+x35-y26_35 <=1 
C773: x26+x36-y26_36 <=1 
C774: x26+x38 <=1 
C775: x26+x39-y26_39 <=1 
C776: x26+x41 <=1 
C777: x26+x42 <=1 
C778: x26+x43-y26_43 <=1 
C779: x26+x46-y26_46 <=1 
C780: x26+x47 <=1 
C781: x26+x49 <=1 
C782: x26+x50 <=1 
C783: x26+x51 <=1 
C784: x26+x52 <=1 
C785: x26+x53 <=1 
C786: x26+x55-y26_55 <=1 
C787: x26+x56-y26_56 <=1 
C788: x26+x57-y26_57 <=1 
C789: x26+x58 <=1 
C790: x26+x60-y26_60 <=1 
C791: x26+x61-y26_61 <=1 
C792: x26+x62-y26_62 <=1 
C793: x27+x28-y27_28 <=1 
C794: x27+x30 <=1 
C795: x27+x31-y27_31 <=1 
C796: x27+x32-y27_32 <=1 
C797: x27+x34-y27_34 <=1 
C798: x27+x35 <=1 
C799: x27+x36-y27_36 <=1 
C800: x27+x37 <=1 
C801: x27+x38-y27_38 <=1 
C802: x27+x39 <=1 
C803: x27+x40 <=1 
C804: x27+x41 <=1 
C805: x27+x42-y27_42 <=1 
C806: x27+x43-y27_43 <=1 
C807: x27+x44-y27_44 <=1 
C808: x27+x47-y27_47 <=1 
C809: x27+x49 <=1 
C810: x27+x52-y27_52 <=1 
C811: x27+x53 <=1 
C812: x27+x54-y27_54 <=1 
C813: x27+x55 <=1 
C814: x27+x56-y27_56 <=1 
C815: x27+x58 <=1 
C816: x27+x59-y27_59 <=1 
C817: x27+x60 <=1 
C818: x27+x61 <=1 
C819: x28+x30 <=1 
C820: x28+x31-y28_31 <=1 
C821: x28+x32 <=1 
C822: x28+x33 <=1 
C823: x28+x34 <=1 
C824: x28+x37-y28_37 <=1 
C825: x28+x38-y28_38 <=1 
C826: x28+x39-y28_39 <=1 
C827: x28+x42-y28_42 <=1 
C828: x28+x45-y28_45 <=1 
C829: x28+x47 <=1 
C830: x28+x49-y28_49 <=1 
C831: x28+x53 <=1 
C832: x28+x54 <=1 
C833: x28+x55-y28_55 <=1 
C834: x28+x56 <=1 
C835: x28+x58 <=1 
C836: x28+x60-y28_60 <=1 
C837: x28+x61-y28_61 <=1 
C838: x28+x62-y28_62 <=1 
C839: x29+x30 <=1 
C840: x29+x31 <=1 
C841: x29+x36-y29_36 <=1 
C842: x29+x39 <=1 
C843: x29+x40-y29_40 <=1 
C844: x29+x42 <=1 
C845: x29+x44 <=1 
C846: x29+x45 <=1 
C847: x29+x47 <=1 
C848: x29+x48 <=1 
C849: x29+x53 <=1 
C850: x29+x54 <=1 
C851: x29+x55 <=1 
C852: x29+x56 <=1 
C853: x29+x57-y29_57 <=1 
C854: x29+x60-y29_60 <=1 
C855: x29+x61 <=1 
C856: x30+x31-y30_31 <=1 
C857: x30+x32 <=1 
C858: x30+x34 <=1 
C859: x30+x35-y30_35 <=1 
C860: x30+x37 <=1 
C861: x30+x42-y30_42 <=1 
C862: x30+x44 <=1 
C863: x30+x46-y30_46 <=1 
C864: x30+x47 <=1 
C865: x30+x48 <=1 
C866: x30+x50-y30_50 <=1 
C867: x30+x51 <=1 
C868: x30+x53 <=1 
C869: x30+x54-y30_54 <=1 
C870: x30+x57-y30_57 <=1 
C871: x30+x58-y30_58 <=1 
C872: x30+x59-y30_59 <=1 
C873: x30+x60 <=1 
C874: x30+x62 <=1 
C875: x31+x32 <=1 
C876: x31+x33-y31_33 <=1 
C877: x31+x34-y31_34 <=1 
C878: x31+x38-y31_38 <=1 
C879: x31+x39-y31_39 <=1 
C880: x31+x40 <=1 
C881: x31+x41 <=1 
C882: x31+x42 <=1 
C883: x31+x44 <=1 
C884: x31+x46-y31_46 <=1 
C885: x31+x47 <=1 
C886: x31+x48 <=1 
C887: x31+x49 <=1 
C888: x31+x53 <=1 
C889: x31+x56-y31_56 <=1 
C890: x31+x58 <=1 
C891: x31+x59 <=1 
C892: x31+x61-y31_61 <=1 
C893: x32+x33 <=1 
C894: x32+x34-y32_34 <=1 
C895: x32+x35 <=1 
C896: x32+x36-y32_36 <=1 
C897: x32+x37 <=1 
C898: x32+x38 <=1 
C899: x32+x41 <=1 
C900: x32+x42 <=1 
C901: x32+x43 <=1 
C902: x32+x44-y32_44 <=1 
C903: x32+x45 <=1 
C904: x32+x46-y32_46 <=1 
C905: x32+x47 <=1 
C906: x32+x48 <=1 
C907: x32+x50 <=1 
C908: x32+x51 <=1 
C909: x32+x52 <=1 
C910: x32+x53-y32_53 <=1 
C911: x32+x54-y32_54 <=1 
C912: x32+x56 <=1 
C913: x32+x57-y32_57 <=1 
C914: x32+x60 <=1 
C915: x32+x61 <=1 
C916: x32+x62 <=1 
C917: x33+x34-y33_34 <=1 
C918: x33+x36-y33_36 <=1 
C919: x33+x37 <=1 
C920: x33+x39 <=1 
C921: x33+x41 <=1 
C922: x33+x42-y33_42 <=1 
C923: x33+x43 <=1 
C924: x33+x44-y33_44 <=1 
C925: x33+x45 <=1 
C926: x33+x46-y33_46 <=1 
C927: x33+x47 <=1 
C928: x33+x48 <=1 
C929: x33+x50-y33_50 <=1 
C930: x33+x51-y33_51 <=1 
C931: x33+x59-y33_59 <=1 
C932: x33+x60 <=1 
C933: x33+x62 <=1 
C934: x34+x35-y34_35 <=1 
C935: x34+x38-y34_38 <=1 
C936: x34+x40 <=1 
C937: x34+x42-y34_42 <=1 
C938: x34+x44 <=1 
C939: x34+x46 <=1 
C940: x34+x48 <=1 
C941: x34+x51-y34_51 <=1 
C942: x34+x52 <=1 
C943: x34+x55 <=1 
C944: x34+x58-y34_58 <=1 
C945: x34+x59-y34_59 <=1 
C946: x34+x60 <=1 
C947: x34+x61-y34_61 <=1 
C948: x35+x36-y35_36 <=1 
C949: x35+x37-y35_37 <=1 
C950: x35+x38 <=1 
C951: x35+x39-y35_39 <=1 
C952: x35+x40 <=1 
C953: x35+x41 <=1 
C954: x35+x42 <=1 
C955: x35+x43-y35_43 <=1 
C956: x35+x45-y35_45 <=1 
C957: x35+x46 <=1 
C958: x35+x47 <=1 
C959: x35+x49-y35_49 <=1 
C960: x35+x50 <=1 
C961: x35+x51 <=1 
C962: x35+x55-y35_55 <=1 
C963: x35+x57-y35_57 <=1 
C964: x35+x58 <=1 
C965: x35+x59 <=1 
C966: x35+x60 <=1 
C967: x36+x37-y36_37 <=1 
C968: x36+x38-y36_38 <=1 
C969: x36+x39 <=1 
C970: x36+x40-y36_40 <=1 
C971: x36+x42 <=1 
C972: x36+x43-y36_43 <=1 
C973: x36+x44-y36_44 <=1 
C974: x36+x45-y36_45 <=1 
C975: x36+x46-y36_46 <=1 
C976: x36+x48-y36_48 <=1 
C977: x36+x49-y36_49 <=1 
C978: x36+x51-y36_51 <=1 
C979: x36+x52-y36_52 <=1 
C980: x36+x53-y36_53 <=1 
C981: x36+x54 <=1 
C982: x36+x55-y36_55 <=1 
C983: x36+x57 <=1 
C984: x36+x58 <=1 
C985: x36+x59-y36_59 <=1 
C986: x36+x60 <=1 
C987: x36+x61-y36_61 <=1 
C988: x36+x62 <=1 
C989: x37+x39-y37_39 <=1 
C990: x37+x40 <=1 
C991: x37+x41 <=1 
C992: x37+x42 <=1 
C993: x37+x46 <=1 
C994: x37+x48 <=1 
C995: x37+x51-y37_51 <=1 
C996: x37+x52 <=1 
C997: x37+x53-y37_53 <=1 
C998: x37+x54-y37_54 <=1 
C999: x37+x55 <=1 
C1000: x37+x58 <=1 
C1001: x37+x59 <=1 
C1002: x37+x61-y37_61 <=1 
C1003: x37+x62 <=1 
C1004: x38+x39 <=1 
C1005: x38+x40 <=1 
C1006: x38+x41-y38_41 <=1 
C1007: x38+x43 <=1 
C1008: x38+x45 <=1 
C1009: x38+x46-y38_46 <=1 
C1010: x38+x47 <=1 
C1011: x38+x48 <=1 
C1012: x38+x49 <=1 
C1013: x38+x50-y38_50 <=1 
C1014: x38+x51 <=1 
C1015: x38+x56 <=1 
C1016: x38+x57-y38_57 <=1 
C1017: x38+x58 <=1 
C1018: x39+x40-y39_40 <=1 
C1019: x39+x41 <=1 
C1020: x39+x46-y39_46 <=1 
C1021: x39+x51 <=1 
C1022: x39+x54-y39_54 <=1 
C1023: x39+x55-y39_55 <=1 
C1024: x39+x56 <=1 
C1025: x39+x57 <=1 
C1026: x39+x59-y39_59 <=1 
C1027: x39+x61-y39_61 <=1 
C1028: x39+x62 <=1 
C1029: x40+x41 <=1 
C1030: x40+x42-y40_42 <=1 
C1031: x40+x43 <=1 
C1032: x40+x44 <=1 
C1033: x40+x45-y40_45 <=1 
C1034: x40+x46 <=1 
C1035: x40+x47 <=1 
C1036: x40+x48 <=1 
C1037: x40+x51 <=1 
C1038: x40+x53 <=1 
C1039: x40+x54-y40_54 <=1 
C1040: x40+x56-y40_56 <=1 
C1041: x40+x57-y40_57 <=1 
C1042: x40+x59-y40_59 <=1 
C1043: x40+x60 <=1 
C1044: x41+x43 <=1 
C1045: x41+x45 <=1 
C1046: x41+x46-y41_46 <=1 
C1047: x41+x47-y41_47 <=1 
C1048: x41+x48-y41_48 <=1 
C1049: x41+x49 <=1 
C1050: x41+x52 <=1 
C1051: x41+x54-y41_54 <=1 
C1052: x41+x55-y41_55 <=1 
C1053: x41+x56-y41_56 <=1 
C1054: x41+x57 <=1 
C1055: x41+x59-y41_59 <=1 
C1056: x41+x61-y41_61 <=1 
C1057: x42+x44-y42_44 <=1 
C1058: x42+x45 <=1 
C1059: x42+x46-y42_46 <=1 
C1060: x42+x47-y42_47 <=1 
C1061: x42+x48 <=1 
C1062: x42+x51-y42_51 <=1 
C1063: x42+x55-y42_55 <=1 
C1064: x42+x59-y42_59 <=1 
C1065: x42+x62-y42_62 <=1 
C1066: x43+x45 <=1 
C1067: x43+x46 <=1 
C1068: x43+x47 <=1 
C1069: x43+x49-y43_49 <=1 
C1070: x43+x50-y43_50 <=1 
C1071: x43+x52 <=1 
C1072: x43+x53 <=1 
C1073: x43+x54 <=1 
C1074: x43+x55 <=1 
C1075: x43+x56-y43_56 <=1 
C1076: x43+x59-y43_59 <=1 
C1077: x44+x45-y44_45 <=1 
C1078: x44+x47 <=1 
C1079: x44+x49-y44_49 <=1 
C1080: x44+x50 <=1 
C1081: x44+x51 <=1 
C1082: x44+x52 <=1 
C1083: x44+x55 <=1 
C1084: x44+x58-y44_58 <=1 
C1085: x44+x59-y44_59 <=1 
C1086: x44+x60 <=1 
C1087: x45+x46-y45_46 <=1 
C1088: x45+x48 <=1 
C1089: x45+x49-y45_49 <=1 
C1090: x45+x51 <=1 
C1091: x45+x52-y45_52 <=1 
C1092: x45+x53-y45_53 <=1 
C1093: x45+x54-y45_54 <=1 
C1094: x45+x55 <=1 
C1095: x45+x57 <=1 
C1096: x45+x58-y45_58 <=1 
C1097: x45+x59 <=1 
C1098: x45+x61 <=1 
C1099: x45+x62-y45_62 <=1 
C1100: x46+x48-y46_48 <=1 
C1101: x46+x49 <=1 
C1102: x46+x51-y46_51 <=1 
C1103: x46+x53 <=1 
C1104: x46+x55 <=1 
C1105: x47+x48-y47_48 <=1 
C1106: x47+x49-y47_49 <=1 
C1107: x47+x50-y47_50 <=1 
C1108: x47+x52 <=1 
C1109: x47+x53 <=1 
C1110: x47+x54 <=1 
C1111: x47+x56-y47_56 <=1 
C1112: x47+x58-y47_58 <=1 
C1113: x47+x59 <=1 
C1114: x47+x61 <=1 
C1115: x48+x49 <=1 
C1116: x48+x50 <=1 
C1117: x48+x53-y48_53 <=1 
C1118: x48+x54-y48_54 <=1 
C1119: x48+x55 <=1 
C1120: x48+x57-y48_57 <=1 
C1121: x48+x58-y48_58 <=1 
C1122: x48+x59 <=1 
C1123: x48+x60 <=1 
C1124: x48+x61-y48_61 <=1 
C1125: x48+x62-y48_62 <=1 
C1126: x49+x50 <=1 
C1127: x49+x51-y49_51 <=1 
C1128: x49+x52-y49_52 <=1 
C1129: x49+x53-y49_53 <=1 
C1130: x49+x54-y49_54 <=1 
C1131: x49+x56 <=1 
C1132: x49+x58-y49_58 <=1 
C1133: x49+x59 <=1 
C1134: x49+x61 <=1 
C1135: x49+x62 <=1 
C1136: x50+x52 <=1 
C1137: x50+x53-y50_53 <=1 
C1138: x50+x55 <=1 
C1139: x50+x60-y50_60 <=1 
C1140: x50+x61 <=1 
C1141: x50+x62-y50_62 <=1 
C1142: x51+x52-y51_52 <=1 
C1143: x51+x53 <=1 
C1144: x51+x54 <=1 
C1145: x51+x55 <=1 
C1146: x51+x56 <=1 
C1147: x51+x58-y51_58 <=1 
C1148: x51+x59-y51_59 <=1 
C1149: x51+x60-y51_60 <=1 
C1150: x52+x54-y52_54 <=1 
C1151: x52+x55-y52_55 <=1 
C1152: x52+x57-y52_57 <=1 
C1153: x52+x58 <=1 
C1154: x52+x60 <=1 
C1155: x52+x61-y52_61 <=1 
C1156: x52+x62 <=1 
C1157: x53+x54 <=1 
C1158: x53+x55 <=1 
C1159: x53+x57-y53_57 <=1 
C1160: x53+x59 <=1 
C1161: x53+x61 <=1 
C1162: x54+x55 <=1 
C1163: x54+x56-y54_56 <=1 
C1164: x54+x57-y54_57 <=1 
C1165: x54+x60 <=1 
C1166: x54+x61 <=1 
C1167: x54+x62 <=1 
C1168: x55+x56-y55_56 <=1 
C1169: x55+x60 <=1 
C1170: x55+x61-y55_61 <=1 
C1171: x56+x57 <=1 
C1172: x56+x58 <=1 
C1173: x56+x59-y56_59 <=1 
C1174: x56+x60 <=1 
C1175: x56+x61 <=1 
C1176: x56+x62 <=1 
C1177: x57+x60-y57_60 <=1 
C1178: x57+x62 <=1 
C1179: x58+x59 <=1 
C1180: x58+x60-y58_60 <=1 
C1181: x58+x61-y58_61 <=1 

binary
x0
x1
x2
x3
x4
x5
x6
x7
x8
x9
x10
x11
x12
x13
x14
x15
x16
x17
x18
x19
x20
x21
x22
x23
x24
x25
x26
x27
x28
x29
x30
x31
x32
x33
x34
x35
x36
x37
x38
x39
x40
x41
x42
x43
x44
x45
x46
x47
x48
x49
x50
x51
x52
x53
x54
x55
x56
x57
x58
x59
x60
x61
x62
