problem_generation/data/GISP/train/er_n=63_m=1181_p=0.60_SET2_setparam=100.00_alpha=0.50_97.sol
objective value:                                 1268
x0                                                  1 	(obj:100)
x1                                                  1 	(obj:100)
x2                                                  1 	(obj:100)
x8                                                  1 	(obj:100)
x20                                                 1 	(obj:100)
x23                                                 1 	(obj:100)
x25                                                 1 	(obj:100)
x29                                                 1 	(obj:100)
x33                                                 1 	(obj:100)
x36                                                 1 	(obj:100)
x49                                                 1 	(obj:100)
x51                                                 1 	(obj:100)
x52                                                 1 	(obj:100)
y0_23                                               1 	(obj:-1)
y25_52                                              1 	(obj:-1)
y29_36                                              1 	(obj:-1)
y36_52                                              1 	(obj:-1)
y25_33                                              1 	(obj:-1)
y2_49                                               1 	(obj:-1)
y36_51                                              1 	(obj:-1)
y1_52                                               1 	(obj:-1)
y49_51                                              1 	(obj:-1)
y23_25                                              1 	(obj:-1)
y20_33                                              1 	(obj:-1)
y23_29                                              1 	(obj:-1)
y20_51                                              1 	(obj:-1)
y1_23                                               1 	(obj:-1)
y0_36                                               1 	(obj:-1)
y8_49                                               1 	(obj:-1)
y20_23                                              1 	(obj:-1)
y33_51                                              1 	(obj:-1)
y0_8                                                1 	(obj:-1)
y33_36                                              1 	(obj:-1)
y2_20                                               1 	(obj:-1)
y51_52                                              1 	(obj:-1)
y36_49                                              1 	(obj:-1)
y1_36                                               1 	(obj:-1)
y1_49                                               1 	(obj:-1)
y49_52                                              1 	(obj:-1)
y1_25                                               1 	(obj:-1)
y0_20                                               1 	(obj:-1)
y8_33                                               1 	(obj:-1)
y2_51                                               1 	(obj:-1)
y0_1                                                1 	(obj:-1)
y8_23                                               1 	(obj:-1)
